; benchmark generated from python API
(set-info :status unknown)
(declare-fun s () Int)
(define-funs-rec ( ( Tn_05 ((x!1 Int)) Int)
                   ( undigitn_05 ((x!1 String)) Int)
                   ( indexn_05 ((x!1 String) (x!2 String)) Int)
                   ( ilog10_n_05 ((x!1 Int)) Int)
                   ( tn_05 ((x!1 Int)) String)
                   ( rotn_05 ((x!1 String) (x!2 Int)) String)
                   ( t1n_05 ((x!1 Int)) String)
                   ( digitn_05 ((x!1 Int)) String)
                   ( zerosn_05 ((x!1 Int)) String)
                   ( ilogn_n_05 ((x!1 Int)) Int)
                   ( T2_02 ((x!1 Int)) Int)
                   ( p2_02 ((x!1 Int)) Int))
                 ( (let ((a!1 (str.substr ((_ tn_05 0)
                                            (+ ((_ ilogn_n_05 0) x!1) 1))
                                          (* x!1 ((_ ilog10_n_05 0) s))
                                          ((_ ilog10_n_05 0) s))))
                     ((_ undigitn_05 0) a!1))
                   (let ((a!1 ((_ undigitn_05 0)
                                (str.substr x!1 1 (- (str.len x!1) 1)))))
                   (let ((a!2 (+ (* 10
                                    ((_ indexn_05 0)
                                      (str.substr x!1 0 1)
                                      "0123456789"))
                                 a!1)))
                     (ite (= (str.len x!1) 1)
                          ((_ indexn_05 0) x!1 "0123456789")
                          a!2)))
                   (let ((a!1 ((_ indexn_05 0)
                                x!1
                                (str.substr x!2
                                            (str.len x!1)
                                            (- (str.len x!2) (str.len x!1))))))
                     (ite (= x!1 (str.substr x!2 0 (str.len x!1))) 0 (+ 1 a!1)))
                   (ite (<= x!1 1) 0 (+ 1 ((_ ilog10_n_05 0) (div x!1 10))))
                   (let ((a!1 (div (str.len ((_ tn_05 0) (- x!1 1))) 2)))
                   (let ((a!2 (str.++ ((_ tn_05 0) (- x!1 1))
                                      ((_ rotn_05 0)
                                        ((_ tn_05 0) (- x!1 1))
                                        a!1))))
                     (ite (= x!1 0)
                          ((_ digitn_05 0) 0)
                          (ite (= x!1 1) ((_ t1n_05 0) 0) a!2))))
                   (str.++ (str.substr x!1 x!2 (- (str.len x!1) x!2))
                           (str.substr x!1 0 x!2))
                   (ite (= x!1 s)
                        ""
                        (str.++ ((_ digitn_05 0) x!1) ((_ t1n_05 0) (+ x!1 1))))
                   (let ((a!1 (str.++ ((_ zerosn_05 0)
                                        (- ((_ ilog10_n_05 0) s) 1))
                                      (str.substr "0123456789" (mod x!1 10) 1)))
                         (a!2 (str.++ (str.substr ((_ digitn_05 0) (div x!1 10))
                                                  1
                                                  (- ((_ ilog10_n_05 0) s) 1))
                                      (str.substr ((_ digitn_05 0) (mod x!1 10))
                                                  (- ((_ ilog10_n_05 0) s) 1)
                                                  1))))
                     (ite (< x!1 10) a!1 a!2))
                   (ite (= x!1 0) "" (str.++ "0" ((_ zerosn_05 0) (- x!1 1))))
                   (ite (<= x!1 1) 0 (+ 1 ((_ ilogn_n_05 0) (div x!1 s))))
                   (let ((a!1 (/ (- 1.0 (^ (- 1) ((_ p2_02 0) x!1))) 2.0)))
                     (to_int a!1))
                   (ite (= x!1 0) 0 (+ ((_ p2_02 0) (div x!1 2)) (mod x!1 2)))))
(assert
 (forall ((n Int) )(let ((?x406 ((_ Tn_05 0) n)))
 (let (($x407 (= ?x406 n)))
 (let ((?x408 ((_ T2_02 0) n)))
 (let (($x409 (= ?x408 n)))
 (let (($x410 (and $x409 $x407)))
 (let (($x387 (< n s)))
 (let (($x411 (>= n 0)))
 (let (($x412 (and $x411 $x387)))
 (=> $x412 $x410))))))))))
 )
(assert
 (let ((?x370 ((_ T2_02 0) s)))
 (= ?x370 1)))
(assert
 (let ((?x322 ((_ Tn_05 0) s)))
 (= ?x322 1)))
(assert
 (forall ((n Int) )(let ((?x406 ((_ Tn_05 0) n)))
(let ((?x408 ((_ T2_02 0) n)))
(let (($x440 (= ?x408 ?x406)))
(let (($x411 (>= n 0)))
(=> $x411 $x440))))))
)
(check-sat)
